Minimize
 obj: 8 y(0) - 7 y(1) - 9 y(3) + 10 y(5) + 5 y(6) + 3 y(7) - 2 y(8) + 7 y(10)
      - 5 y(11) + 8 y(12) + 9 y(13) - 10 y(15) - 10 y(16) - 3 y(17) - 5 y(19)
      - 8 y(20) + 10 y(21) + 4 y(23) - 3 y(24) - 5 y(31) + 3 y(32) + 144 x(0)
      + 5 y(4) + 9 y(14) - 9 y(18) + 3 y(22) - 9 y(26) - 5 y(28) - 3 y(29)
      + 10 y(36) - 9 y(38) + 157 x(1) - 3 y(27) + 2 y(30) + 83 x(2) + 10 y(33)
      - 4 y(34) + 178 x(3) + 5 y(25) - 2 y(35) - 113 x(4) - 111 x(5) - 7 y(37)
      + 135 x(6) - 41 x(7) - 2 y(2) - 189 x(8) - 72 x(9) - 37 x(10) - 82 x(11)
      - 48 x(12) + 164 x(13) + 192 x(14) - 58 x(15) - 150 x(17) + 155 x(18)
      - 8 x(19) + 12 x(20) + 148 x(21) + 54 x(22) - 20 x(23) + 175 x(24)
      + 13 x(25) + 2 x(26) - 24 x(27) - 54 x(28) - 138 x(29) + 34 x(30)
      - 110 x(31) + 147 x(32) - 84 x(33) + 195 x(34) - 167 x(35) - 67 x(36)
      + 130 x(37) - 7 x(38) - 55 x(39) 
Subject To
 c1:  4 y(0) + 6 y(1) + y(3) + 6 y(5) + 8 y(6) + 12 y(7) + 14 y(8) - y(9)
      + 7 y(10) + 13 y(11) + 17 y(12) + 14 y(13) - y(15) + 19 y(16) + 5 y(17)
      + 7 y(19) + y(20) + 3 y(21) + 15 y(23) + 14 y(24) + 19 y(31) + 2 y(32)
      + 4 x(0) <= 67
 c2:  12 y(1) + 7 y(3) + 8 y(5) - y(9) + 15 y(11) + 12 y(12) + 10 y(13)
      + 2 y(15) + 15 y(16) + 20 y(17) + 12 y(20) + 3 y(21) + 17 y(23) - y(4)
      + 8 y(14) + y(18) + 17 y(22) + 16 y(26) + 18 y(28) + 6 y(29) + 10 y(36)
      + 20 y(38) - x(1) <= 82
 c3:  5 y(1) - y(5) + 8 y(8) + 8 y(9) + 10 y(13) + 14 y(19) + 11 y(32) - y(4)
      + 16 y(22) + 7 y(26) + y(28) + 14 y(36) + 5 y(27) + 7 y(30) + 16 x(2)
      <= 99
 c4:  3 y(0) + 18 y(1) + 6 y(6) - y(7) + 20 y(9) + 11 y(10) + 4 y(12) + 6 y(16)
      + 10 y(17) + 17 y(21) + 12 y(23) + 18 y(31) + 15 y(4) + 5 y(18) + 2 y(26)
      + 12 y(28) + 5 y(29) + 13 y(38) + 18 y(27) + 20 y(33) + 17 y(34)
      + 10 x(3) <= 54
 c5:  20 y(3) + 4 y(7) + 14 y(8) + 5 y(10) + 2 y(12) + 19 y(13) + 16 y(19)
      + 16 y(24) + 9 y(32) + 20 y(22) + 19 y(26) + y(34) + 14 y(25) + 5 y(35)
      + 7 x(4) <= 62
 c6:  7 y(5) + 17 y(6) + 8 y(8) + 16 y(12) + 5 y(13) + 16 y(15) + 8 y(21)
      + 19 y(23) + 14 y(24) + 18 y(31) + 17 y(32) + 2 y(14) + 12 y(22)
      + 19 y(36) + 4 y(27) + 20 y(30) + 20 y(25) + 19 y(39) + 3 x(5) <= 95
 c7:  18 y(0) + 17 y(1) + 2 y(5) + 20 y(6) + 18 y(7) + 12 y(12) + 7 y(13)
      + 4 y(16) + 15 y(19) + 9 y(20) + 20 y(32) + 6 y(28) + 10 y(27) + 5 y(33)
      + 9 y(35) + 10 y(39) + 12 y(37) - x(6) <= 57
 c8:  8 y(0) + 13 y(5) + 10 y(7) + 6 y(8) + 13 y(10) + 5 y(11) + 6 y(16)
      + 11 y(17) + 2 y(19) + 8 y(4) + y(14) + 6 y(22) + 3 y(28) + 7 y(27)
      + 9 y(30) + 2 y(33) + 17 y(34) + 7 y(35) + 9 y(39) + 12 x(7) <= 63
 c9:  14 y(1) + 2 y(3) + 9 y(5) + 7 y(6) + 8 y(7) + 19 y(8) - y(9) + 18 y(10)
      + 9 y(13) + 18 y(19) + 14 y(20) + 11 y(24) + 14 y(4) + 4 y(22) + 12 y(29)
      + 12 y(36) + 16 y(38) + 8 y(27) + 17 y(34) + 16 y(39) + 14 y(37)
      + 13 y(2) + 14 x(8) <= 65
 c10: - y(0) + 2 y(5) + 4 y(7) + 16 y(8) - y(9) + 2 y(10) + 19 y(16) + 8 y(19)
      + 16 y(21) + 15 y(24) - y(18) + 13 y(22) + 4 y(26) + 10 y(28) - y(36)
      + 4 y(30) + 3 y(33) + 14 y(25) + 15 y(35) + 5 y(39) + 7 y(37) - y(2)
      + 15 x(9) <= 62
 c11: 12 y(0) + 4 y(1) + 7 y(6) + 15 y(9) + 6 y(13) + 3 y(15) + 4 y(17)
      + 16 y(19) + 17 y(20) + 3 y(21) - y(18) + 16 y(36) + 8 y(38) - y(27)
      + 16 y(34) + 11 y(35) + 10 y(39) + 7 y(37) + 16 x(10) <= 72
 c12: 10 y(5) + 7 y(6) + 12 y(8) + 12 y(9) + 5 y(11) + 18 y(13) + 11 y(16)
      + 15 y(17) + 10 y(20) + 19 y(23) + 20 y(24) + 10 y(4) + 5 y(14)
      + 17 y(22) + 16 y(29) + 18 y(33) + 17 y(34) + 20 y(35) + 15 y(39)
      + 18 y(37) + 13 y(2) + 4 x(11) <= 52
 c13: 8 y(0) + 7 y(1) + 4 y(5) + 8 y(6) + 8 y(7) + 4 y(8) + 16 y(11) + 7 y(12)
      + 13 y(13) + y(15) + 6 y(16) + 14 y(19) + 13 y(21) + 15 y(31) + 12 y(32)
      + 15 y(14) + 16 y(28) + 12 y(38) + 9 y(30) + 16 y(25) + 14 y(37)
      + 5 x(12) <= 61
 c14: 10 y(1) + 6 y(3) + 6 y(8) + 13 y(9) + 4 y(11) + 17 y(16) + 8 y(14)
      + 6 y(36) + 9 y(38) + 16 y(25) + 6 y(2) + 13 x(13) <= 79
 c15: 20 y(1) + 20 y(5) + 15 y(6) + 12 y(8) + 7 y(9) + 12 y(11) + 5 y(12)
      + 11 y(15) + 4 y(17) + 8 y(19) + 8 y(4) + 2 y(14) + 9 y(18) + 17 y(26)
      + 16 y(25) + 17 y(35) + 7 y(37) + 7 y(2) + 14 x(14) <= 63
 c16: 10 y(0) + 9 y(1) + 5 y(5) + 15 y(11) + 14 y(13) + 8 y(16) + 6 y(17)
      + 13 y(19) + 16 y(31) + 20 y(4) + 12 y(14) + 8 y(26) + 3 y(28) + y(36)
      + 14 y(38) + 17 y(27) + 17 y(30) + 8 y(33) - y(2) + 20 x(15) <= 84
 c17: 17 y(1) + 14 y(3) + 17 y(5) - y(8) + 11 y(12) + 15 y(13) + 5 y(23)
      + 5 y(24) + 14 y(18) + 16 y(28) + 15 y(30) + 6 y(33) - y(25) + 14 x(16)
      <= 71
 c18: 17 y(3) + 6 y(7) + 2 y(8) + 13 y(12) + 15 y(15) + 19 y(17) + 12 y(19)
      + 2 y(21) + 14 y(23) + 16 y(31) + 14 y(32) + 11 y(4) + 9 y(14) + 11 y(26)
      + 10 y(28) + 12 y(29) + 6 y(36) + 17 y(38) + 13 y(27) + 14 y(35)
      + 15 y(37) + 6 x(17) <= 95
 c19: 15 y(0) + 14 y(1) + 5 y(3) + y(5) + 19 y(6) + 7 y(9) + 7 y(15) + 5 y(16)
      + 3 y(22) + 2 y(29) - y(36) + 19 y(33) + 10 y(35) + 4 y(37) + 14 y(2)
      + 6 x(18) <= 63
 c20: 11 y(0) + 15 y(3) + 4 y(6) + 3 y(8) + 15 y(10) + 17 y(16) + 14 y(19)
      + y(21) + 13 y(14) + 15 y(18) + 17 y(22) + 8 y(26) + 6 y(28) + 16 y(29)
      + 3 y(36) + 8 y(38) + 13 y(34) + 6 y(25) + 10 y(39) + 10 y(2) + 9 x(19)
      <= 63
 c21: 5 y(0) + y(6) + y(7) + 7 y(9) + 20 y(12) + 14 y(13) + 19 y(15) + 13 y(17)
      + 3 y(19) - y(21) + 2 y(24) + 4 y(32) + 5 y(14) + y(27) + 9 y(33)
      + 3 y(34) - y(25) + 18 y(37) + 6 y(2) + 16 x(20) <= 75
 c22: 15 y(0) + 18 y(7) + 11 y(13) + 6 y(15) + 8 y(17) + 12 y(19) + 10 y(20)
      + 10 y(21) + 9 y(23) + 4 y(24) + 9 y(31) + 10 y(32) - y(14) + 16 y(22)
      + 4 y(26) + 3 y(28) + 6 y(29) + 5 y(36) + 15 y(30) + 19 y(33) + 4 y(34)
      + 19 x(21) <= 85
 c23: 8 y(1) + 15 y(3) + 3 y(6) + 19 y(8) + 17 y(11) + 17 y(17) + 14 y(21)
      + y(23) + 19 y(24) - y(32) + 19 y(4) - y(18) + 9 y(38) + 5 y(30)
      + 4 y(35) + 10 y(37) + y(2) + 11 x(22) <= 52
 c24: 15 y(0) + 20 y(3) + 20 y(5) + 18 y(6) + 15 y(7) + 10 y(11) + 4 y(12)
      + y(17) + 3 y(19) + 19 y(20) + 15 y(23) + 11 y(24) + 14 y(32) + 6 y(4)
      + 3 y(22) + 19 y(30) + 11 y(25) + 8 y(39) - y(37) + 11 x(23) <= 66
 c25: 20 y(3) + 6 y(6) + 3 y(7) + 8 y(10) + 9 y(12) + 2 y(13) + 3 y(16)
      + 2 y(17) + 19 y(20) + 17 y(23) + 17 y(24) + 19 y(32) + 7 y(4) + 13 y(22)
      + 16 y(29) + 11 y(38) + 6 y(27) + 14 y(25) + 8 y(35) + 17 x(24) <= 100
 c26: 3 y(1) + 11 y(3) + 17 y(5) + 9 y(8) + 13 y(10) + 16 y(15) + 14 y(16)
      + 18 y(19) + 9 y(20) + 11 y(24) + 17 y(4) + 15 y(18) + 14 y(26) + 4 y(38)
      + 7 y(30) + 19 y(33) + 20 y(25) + 3 y(2) + 16 x(25) <= 64
 c27: 13 y(0) + 8 y(1) + 9 y(3) + 2 y(6) + 10 y(8) + 12 y(10) + 12 y(13)
      + 8 y(15) + 7 y(16) + 6 y(19) + 12 y(20) + y(21) + 14 y(23) + 9 y(31)
      + 7 y(22) + 18 y(26) + 9 y(38) + 18 y(30) + 16 y(34) + 13 y(25)
      + 20 y(39) + 20 y(37) + 15 y(2) + 16 x(26) <= 66
 c28: 16 y(5) + 19 y(6) + 17 y(8) + 18 y(10) + 20 y(11) + 19 y(12) + 13 y(13)
      + 15 y(17) + 9 y(19) + 12 y(4) + 9 y(18) + 6 y(26) + 20 y(29) + 14 y(27)
      + 11 y(35) + 5 y(2) + 8 x(27) <= 83
 c29: 2 y(5) + 16 y(7) + 4 y(10) + y(13) + 8 y(15) + 16 y(4) + 11 y(18)
      + 7 y(26) + y(29) + 16 y(27) + 14 y(30) + 3 y(33) + 15 y(34) + 10 y(39)
      + y(2) + x(28) <= 98
 c30: 9 y(1) + 9 y(12) + 14 y(15) + 16 y(23) + 6 y(31) + 5 y(18) + 11 y(22)
      + 9 y(26) + 20 y(36) + 18 y(38) + 13 y(30) + 8 y(34) + 14 y(2) + 8 x(29)
      <= 62
 c31: 14 y(1) + 10 y(5) - y(7) + 15 y(11) + 10 y(12) + 5 y(16) + y(17)
      + 14 y(19) + 14 y(20) + 7 y(23) + 15 y(24) + y(31) + y(4) - y(14)
      + 16 y(18) + 13 y(29) + 15 y(27) + 8 y(34) + 8 x(30) <= 94
 c32: 14 y(9) + 6 y(12) + 9 y(13) + 2 y(15) + 19 y(17) + 3 y(19) + y(20)
      + 20 y(24) + 7 y(31) + 18 y(14) + 14 y(28) + 13 y(36) - y(38) + y(25)
      + 20 y(35) + 19 y(39) - y(2) + 5 x(31) <= 89
 c33: 15 y(1) - y(5) + 14 y(6) + 7 y(7) + 4 y(9) + 4 y(10) + 12 y(11) + 3 y(12)
      + 7 y(21) - y(32) + 4 y(4) + 16 y(18) + 17 y(34) + 9 y(25) + 11 y(35)
      + 13 y(39) + 3 y(2) + 9 x(32) <= 95
 c34: 2 y(1) + 15 y(7) + 9 y(11) + 3 y(13) + 16 y(15) + 4 y(20) + 11 y(21)
      + 4 y(4) + 19 y(14) + 18 y(22) + 19 y(26) + 19 y(28) + 8 y(38) + 14 y(33)
      + 11 y(39) + 15 y(37) + 18 y(2) + 3 x(33) <= 66
 c35: 15 y(1) + 14 y(3) + 20 y(7) + 15 y(8) + 8 y(9) + 13 y(13) + 6 y(16)
      + 8 y(19) + 10 y(20) + 8 y(21) + 3 y(31) + 8 y(32) + 19 y(14) + y(18)
      + 3 y(26) + 7 y(28) + 14 y(29) + 4 y(38) + 16 y(27) + 4 y(30) - y(33)
      + 14 y(25) - y(35) + 10 y(37) + 14 x(34) <= 93
 c36: 6 y(1) + 10 y(5) + 7 y(6) + 6 y(8) - y(9) + 10 y(12) + 14 y(15)
      + 17 y(19) - y(23) + 12 y(24) + 5 y(18) + 12 y(22) + 6 y(26) + 2 y(28)
      + 9 y(38) + 6 y(27) + 20 y(35) + 15 x(35) <= 56
 c37: 19 y(8) + 17 y(10) + 20 y(12) + 6 y(13) + 15 y(16) + y(17) + 17 y(19)
      + 7 y(24) + 2 y(31) + 15 y(18) + 16 y(22) + 18 y(29) + 18 y(38) + 3 y(27)
      + 13 y(30) + 20 y(33) + 20 y(34) + 14 y(25) + 13 y(35) + 6 x(36) <= 60
 c38: 7 y(6) + 8 y(10) + 10 y(11) + 16 y(15) + 16 y(16) + 4 y(19) + 12 y(21)
      + 7 y(23) + 2 y(14) + 15 y(18) + 4 y(28) + 11 y(36) - y(39) + 13 y(37)
      + 14 x(37) <= 75
 c39: 2 y(0) + 9 y(5) - y(6) + 20 y(7) + 14 y(10) + 6 y(11) + 19 y(13)
      + 9 y(15) + 18 y(17) + 12 y(20) + y(24) + 4 y(31) + 3 y(28) + 12 y(36)
      + 12 y(27) + 3 y(2) + 4 x(38) <= 94
 c40: 13 y(1) + 9 y(5) - y(6) + 19 y(9) + 8 y(11) + 19 y(15) + 15 y(17) - y(19)
      + y(24) + 8 y(32) + 11 y(22) + 13 y(28) + 2 y(29) + 6 y(38) + 14 y(27)
      + 20 y(30) + 20 y(34) + 19 y(35) + 12 y(2) - x(39) <= 100
 c41: 14 y(0) + 9 y(1) + 15 y(7) + 11 y(8) - y(11) + y(12) + 13 y(13) + 5 y(15)
      + 3 y(16) + 19 y(17) + 14 y(19) + 16 y(21) + 10 y(14) + 10 y(22)
      + 3 y(26) + 8 y(29) + 5 y(34) + 14 y(25) + 8 y(39) + 12 y(37) <= 87
 c42: 8 y(0) + 10 y(3) + 12 y(5) + 4 y(9) + 9 y(10) + 17 y(11) + 12 y(16)
      + 17 y(19) + 4 y(20) + 11 y(21) + 17 y(23) + y(31) + y(4) + y(14)
      + 2 y(29) + 6 y(27) + 18 y(30) + 5 y(33) + 9 y(34) + 6 y(35) + 16 y(39)
      <= 65
 c43: 7 y(1) + 18 y(6) + 5 y(8) + 9 y(11) + 19 y(16) + 19 y(17) + 20 y(23)
      + 19 y(32) + 3 y(18) + 3 y(28) + 18 y(29) + 4 y(36) + 3 y(33) + 17 y(34)
      + 10 y(39) <= 77
 c44: - y(1) + 9 y(6) + 10 y(10) + 12 y(12) + 17 y(13) + 7 y(17) + 3 y(23)
      + 14 y(18) + 8 y(28) + 10 y(36) + 10 y(27) + 6 y(33) + 3 y(39) <= 72
 c45: 5 y(0) + 14 y(11) - y(13) + 11 y(17) + 18 y(19) + 3 y(20) + 2 y(31)
      + 4 y(18) + 2 y(22) + 8 y(28) + 20 y(29) + 7 y(38) + 6 y(30) + 19 y(35)
      + 19 y(2) <= 95
 c46: y(0) + 11 y(1) + 20 y(5) + 3 y(8) + 3 y(11) - y(13) + 14 y(15) + 8 y(17)
      + 10 y(23) + 3 y(31) + 8 y(4) + 19 y(14) + 16 y(26) + 2 y(30) + 9 y(33)
      + 6 y(34) + 10 y(25) <= 90
 c47: 7 y(1) + 19 y(3) + y(5) + 7 y(7) + 5 y(8) + 2 y(9) + 3 y(11) + 5 y(12)
      + 11 y(13) + 12 y(17) + 20 y(20) + 10 y(14) + 4 y(26) + 5 y(27) + 2 y(33)
      + 10 y(34) + 13 y(35) + 6 y(39) + 11 y(2) <= 56
 c48: 10 y(0) + 10 y(17) + 8 y(21) + 11 y(23) + 11 y(24) + 15 y(31) + 3 y(32)
      + 10 y(4) + 3 y(14) + 5 y(18) + 18 y(29) + 7 y(36) + 6 y(35) + 12 y(39)
      <= 90
 c49: y(1) + 20 y(3) + 14 y(9) + 18 y(13) + 12 y(16) + 4 y(19) + 5 y(20)
      + 8 y(23) + 15 y(24) + 16 y(31) + 18 y(26) + y(29) + 15 y(38) + 17 y(27)
      + y(30) - y(25) + 11 y(35) - y(39) + 6 y(37) <= 59
 c50: y(6) + 18 y(7) + 5 y(11) + 13 y(12) + 10 y(13) + 6 y(17) + 4 y(20)
      + y(21) + 15 y(24) + 11 y(32) + 9 y(18) + 13 y(22) + 12 y(26) + 12 y(27)
      + 16 y(30) - y(33) + 4 y(34) + 5 y(35) + 7 y(37) <= 94
 c51: 4 y(1) + 7 y(6) + 13 y(11) + 9 y(17) + 4 y(32) + 17 y(4) + 7 y(22)
      + 2 y(29) + 4 y(38) + 8 y(30) + 17 y(34) + 17 y(25) + 13 y(35) + 5 y(37)
      <= 52
 c52: 7 y(3) + 5 y(6) + 18 y(7) + 6 y(9) + 4 y(10) + 2 y(11) + 13 y(13)
      + 18 y(16) + 15 y(21) + 18 y(32) + 15 y(4) + 20 y(14) + 12 y(18)
      + 8 y(22) + 10 y(26) + 3 y(28) + 17 y(29) + 4 y(33) + 13 y(34) + 18 y(25)
      + 17 y(39) + 12 y(2) <= 84
 c53: 18 y(5) + 5 y(6) + 5 y(7) + 15 y(9) + 4 y(11) + 3 y(13) + 14 y(15)
      + 16 y(19) + 14 y(20) + 6 y(21) + 8 y(31) + 12 y(32) + 14 y(4) + 11 y(22)
      + 12 y(26) + 10 y(28) + 2 y(29) + 13 y(36) + 10 y(27) + 19 y(30)
      + 10 y(35) + 2 y(39) + 3 y(2) <= 79
 c54: 2 y(6) + 7 y(8) + 8 y(10) + 3 y(11) + 10 y(17) + 11 y(20) + 7 y(24)
      + 17 y(31) + 16 y(32) + 6 y(18) + 8 y(36) + y(38) + 17 y(27) + 20 y(33)
      + 13 y(34) + 13 y(25) + 16 y(35) + 14 y(37) + 4 y(2) <= 79
 c55: 10 y(1) + 16 y(6) + 16 y(8) + 12 y(11) + 8 y(15) + 16 y(16) + 3 y(19)
      + 3 y(20) + 6 y(21) + 17 y(18) + 17 y(26) + 13 y(29) - y(30) + 11 y(25)
      + 7 y(39) <= 74
 c56: 10 y(0) + 17 y(1) + 2 y(5) + 15 y(10) + 19 y(12) + 5 y(13) + 5 y(16)
      + 7 y(20) + 6 y(21) + y(4) + 12 y(22) + 6 y(26) + 7 y(28) + 4 y(38)
      + 15 y(34) + 9 y(35) + 4 y(39) + 15 y(2) <= 78
 c57: 4 y(0) + 17 y(6) + 5 y(8) + 19 y(9) + 18 y(10) + 12 y(13) + 3 y(19)
      + 13 y(20) + 2 y(21) + 3 y(24) + 20 y(31) + 5 y(18) + 16 y(28) + 5 y(38)
      + 10 y(30) + 13 y(33) - y(25) + 5 y(2) <= 67
 c58: 3 y(0) + 9 y(5) + 16 y(6) - y(7) + 19 y(13) - y(17) + 8 y(20) + 20 y(21)
      + 17 y(24) + 5 y(4) + 11 y(14) + 7 y(18) - y(22) + 19 y(38) + 20 y(27)
      + 6 y(30) + 17 y(33) <= 64
 c59: 19 y(0) + 13 y(1) + 13 y(7) + 12 y(8) + 7 y(10) + 18 y(17) + 6 y(21)
      + 14 y(23) + 16 y(4) + y(27) + 10 y(30) + 9 y(39) + 15 y(2) <= 85
 c60: 20 y(1) - y(3) + 17 y(9) + 20 y(12) + 18 y(19) + 2 y(24) + 16 y(31)
      + 16 y(32) + 16 y(4) + 5 y(18) + 13 y(26) + 11 y(38) + 19 y(30) - y(34)
      + 11 y(35) <= 64
 c61: 13 y(1) + 8 y(3) + 16 y(5) + 9 y(7) + 15 y(9) - y(10) + 14 y(11)
      + 10 y(13) + 15 y(16) + 14 y(19) + y(20) + 4 y(21) + 5 y(23) + 2 y(31)
      + 14 y(32) + 8 y(4) - y(18) + 4 y(26) + 9 y(36) + 8 y(38) + 13 y(27)
      + 4 y(30) + 11 y(25) + 19 y(35) + 16 y(39) <= 77
 c62: - y(1) + 5 y(3) + 4 y(6) + y(8) + y(9) + 19 y(11) + 9 y(12) + 19 y(15)
      + y(16) + 2 y(20) + 14 y(21) + 17 y(24) + 19 y(14) + 7 y(22) + 12 y(28)
      + 3 y(38) + 18 y(30) + 19 y(33) + 12 y(39) + 13 y(37) <= 52
 c63: 10 y(5) + 17 y(11) + 4 y(12) + 3 y(13) + 16 y(15) + 15 y(17) + 13 y(19)
      + 12 y(23) + 12 y(32) + 17 y(4) + 13 y(18) - y(22) + 8 y(28) + 5 y(38)
      + 13 y(25) + 13 y(37) <= 77
 c64: y(5) + 11 y(7) + 3 y(11) + 11 y(12) + 20 y(13) + 8 y(15) + 8 y(20)
      + 2 y(23) + 2 y(31) + 9 y(22) + 5 y(26) + 9 y(28) + 4 y(29) + 15 y(30)
      + 18 y(37) <= 71
 c65: 4 y(1) + y(3) + 7 y(5) + y(6) + 17 y(7) + 19 y(8) + 17 y(11) + 5 y(12)
      + 4 y(16) + 11 y(19) + 19 y(20) + 7 y(21) + 20 y(23) + 17 y(14) + y(22)
      + 12 y(29) + 7 y(38) + 9 y(34) + 19 y(25) + 7 y(35) + 8 y(39) + 18 y(37)
      <= 69
 c66: 11 y(1) + 8 y(6) - y(11) + 10 y(12) + 13 y(13) + 4 y(16) + 19 y(23)
      + 5 y(24) + 10 y(31) - y(18) + 7 y(38) + 3 y(34) + 8 y(25) + 16 y(35)
      - y(37) + 20 y(2) <= 95
 c67: 3 y(0) + 8 y(3) + 15 y(8) + 7 y(9) + 11 y(12) - y(13) - y(15) + 5 y(19)
      + 13 y(20) + 6 y(21) + 15 y(24) + 4 y(31) + 7 y(22) + 13 y(26) + 7 y(28)
      + 18 y(36) + 10 y(27) + 8 y(30) + 8 y(33) + 4 y(35) + 10 y(39) + 15 y(37)
      + 11 y(2) <= 51
 c68: 12 y(0) + 16 y(3) + 18 y(6) + 8 y(12) + 3 y(15) + 2 y(17) + y(4)
      + 10 y(18) + y(22) + 2 y(26) + 14 y(28) + 19 y(38) + 6 y(27) + 19 y(30)
      + 12 y(39) <= 53
 c69: 15 y(0) + 14 y(1) + 11 y(3) + 8 y(5) + 19 y(6) + 7 y(7) - y(10) - y(13)
      + 8 y(15) + 12 y(21) + 5 y(23) + 20 y(31) + y(14) + 20 y(22) + 15 y(26)
      + 4 y(29) + 17 y(36) + 11 y(38) + 10 y(27) + 11 y(30) + 5 y(34)
      + 16 y(37) <= 69
 c70: 14 y(3) + y(5) + 18 y(7) + 3 y(12) + 20 y(13) + 2 y(17) + 15 y(19)
      + 12 y(20) + 8 y(23) + 6 y(24) + 17 y(32) + y(14) + 14 y(18) + 9 y(28)
      + 13 y(36) + 3 y(30) <= 96
 c71: 9 y(1) + 16 y(5) + 17 y(8) - y(10) + 12 y(12) + 8 y(13) + 18 y(15)
      + 7 y(19) + 18 y(23) + 13 y(32) + 3 y(4) + y(18) + 18 y(22) + 5 y(26)
      + 18 y(29) + y(36) + y(30) + 11 y(33) + 18 y(34) + 4 y(25) + 19 y(35)
      + 13 y(2) <= 53
 c72: y(0) + 4 y(6) + 16 y(7) - y(8) + 4 y(11) + 9 y(13) + 9 y(15) + 19 y(19)
      + 4 y(21) + 20 y(4) + 12 y(18) - y(29) + y(36) + 19 y(27) + 16 y(33)
      + 10 y(34) + 12 y(39) + 7 y(37) <= 80
 c73: 5 y(1) + 18 y(6) + 17 y(8) + 12 y(10) + 19 y(19) + 8 y(20) + 17 y(21)
      + 16 y(24) - y(4) + 12 y(18) + 3 y(22) + 11 y(26) + 3 y(27) + 7 y(30)
      + 12 y(33) + 5 y(35) + 4 y(37) <= 60
 c74: 13 y(0) + 9 y(1) - y(5) - y(7) + 9 y(11) + 3 y(12) + 16 y(13) + 8 y(15)
      + 6 y(16) + 10 y(17) + 9 y(20) + 3 y(21) + 3 y(24) + 12 y(32) + 11 y(4)
      + 18 y(28) + 12 y(29) + 16 y(36) + 3 y(27) + 18 y(33) + 18 y(25)
      + 17 y(35) + 2 y(37) <= 54
 c75: 8 y(6) + 5 y(8) + 6 y(9) + 11 y(10) + 11 y(16) + 9 y(20) + 17 y(31)
      + 20 y(14) + 11 y(18) + 17 y(22) + 15 y(28) + 20 y(29) + 16 y(38)
      + 16 y(27) + 20 y(33) + 6 y(34) + 19 y(25) - y(37) + y(2) <= 51
 c76: 8 y(5) + 5 y(7) + 14 y(10) + 14 y(12) + 16 y(13) + 12 y(16) + 17 y(17)
      + 14 y(20) + 4 y(21) + 8 y(23) + y(24) + 7 y(32) + 5 y(4) + 11 y(18)
      + y(22) + 17 y(26) + 17 y(28) + 18 y(27) + 18 y(30) + 13 y(25) + y(2)
      <= 79
 c77: 14 y(3) + 4 y(7) + 10 y(8) + 11 y(10) + 19 y(11) + 6 y(17) + 10 y(21)
      + 4 y(23) + 6 y(32) + 20 y(4) + 13 y(18) + 12 y(26) + 3 y(28) + 14 y(38)
      + 3 y(27) + 14 y(33) + 4 y(25) <= 94
 c78: 3 y(0) + 20 y(5) + 20 y(7) + 2 y(9) + 6 y(10) + 2 y(11) + 7 y(12)
      + 7 y(13) + 7 y(15) + 12 y(17) + 18 y(19) - y(20) + 10 y(23) + y(24)
      + 2 y(14) + 7 y(22) + 15 y(26) + 7 y(38) + 5 y(27) + 10 y(30) + 3 y(33)
      + 20 y(34) + 16 y(39) + 4 y(37) <= 82
 c79: 2 y(1) + 4 y(3) + 19 y(9) + 14 y(11) + 2 y(13) + 12 y(15) + 10 y(16)
      + 10 y(19) + 17 y(21) + 15 y(23) + 14 y(32) + y(14) + 19 y(26) + 8 y(28)
      + 5 y(30) + 5 y(35) - y(39) <= 68
 c80: x(0) + x(1) + x(2) + x(3) + x(4) + x(5) + x(6) + x(7) + x(8) + x(9)
      + x(10) + x(11) + x(12) + x(13) + x(14) + x(15) + x(16) + x(17) + x(18)
      + x(19) + x(20) + x(21) + x(22) + x(23) + x(24) + x(25) + x(26) + x(27)
      + x(28) + x(29) + x(30) + x(31) + x(32) + x(33) + x(34) + x(35) + x(36)
      + x(37) + x(38) + x(39) <= 13
 c81: 6 y(0) - 10 y(1) + 3 y(3) + 6 y(5) + 6 y(6) - 6 y(7) - 7 y(8) + 10 y(9)
      - y(10) - 2 y(11) + 10 y(12) - 8 y(13) - 4 y(15) + 9 y(16) - 4 y(17)
      - 6 y(19) + 4 y(20) - 2 y(21) - y(23) + 10 y(31) - 7 y(32) + 185 x(0)
      - 9 y(4) - 8 y(14) + 6 y(18) + 8 y(26) - 6 y(28) - 9 y(29) + 5 y(36)
      - y(38) + 83 x(1) + y(27) - 9 y(30) - 10 x(2) + 7 y(33) + 5 y(34)
      - 63 x(3) + 9 y(25) - 5 y(35) - 26 x(4) + 9 y(39) - 18 x(5) + 3 y(37)
      + 7 x(6) + 175 x(7) + 5 y(2) + 33 x(8) - 39 x(9) - 33 x(10) + 173 x(11)
      - 91 x(12) - 179 x(13) - 47 x(14) - 189 x(15) - 38 x(16) + 82 x(17)
      - 12 x(18) + 108 x(19) + 145 x(20) - 179 x(21) + 126 x(22) + 91 x(23)
      - 62 x(24) + 48 x(25) + 52 x(26) - x(27) - 23 x(28) + 173 x(29)
      + 144 x(30) - 111 x(31) - 17 x(32) - 66 x(33) - 46 x(34) + 158 x(35)
      + 117 x(36) + 162 x(37) + 132 x(38) - 123 x(39) = 0
Bounds
 0 <= x(0) <= 1
 0 <= x(1) <= 1
 0 <= x(2) <= 1
 0 <= x(3) <= 1
 0 <= x(4) <= 1
 0 <= x(5) <= 1
 0 <= x(6) <= 1
 0 <= x(7) <= 1
 0 <= x(8) <= 1
 0 <= x(9) <= 1
 0 <= x(10) <= 1
 0 <= x(11) <= 1
 0 <= x(12) <= 1
 0 <= x(13) <= 1
 0 <= x(14) <= 1
 0 <= x(15) <= 1
 0 <= x(16) <= 1
 0 <= x(17) <= 1
 0 <= x(18) <= 1
 0 <= x(19) <= 1
 0 <= x(20) <= 1
 0 <= x(21) <= 1
 0 <= x(22) <= 1
 0 <= x(23) <= 1
 0 <= x(24) <= 1
 0 <= x(25) <= 1
 0 <= x(26) <= 1
 0 <= x(27) <= 1
 0 <= x(28) <= 1
 0 <= x(29) <= 1
 0 <= x(30) <= 1
 0 <= x(31) <= 1
 0 <= x(32) <= 1
 0 <= x(33) <= 1
 0 <= x(34) <= 1
 0 <= x(35) <= 1
 0 <= x(36) <= 1
 0 <= x(37) <= 1
 0 <= x(38) <= 1
 0 <= x(39) <= 1
Binaries
 x(0)  x(1)  x(2)  x(3)  x(4)  x(5)  x(6)  x(7)  x(8)  x(9)  x(10)  x(11) 
 x(12)  x(13)  x(14)  x(15)  x(16)  x(17)  x(18)  x(19)  x(20)  x(21)  x(22) 
 x(23)  x(24)  x(25)  x(26)  x(27)  x(28)  x(29)  x(30)  x(31)  x(32)  x(33) 
 x(34)  x(35)  x(36)  x(37)  x(38)  x(39) 
End
